set Stages := FirstStage SecondStage ; 
set Nodes := RootNode 
Node1 
Node2 
Node3 
Node4 
; 
param NodeStage := RootNode FirstStage 
Node1 SecondStage 
Node2 SecondStage 
Node3 SecondStage 
Node4 SecondStage 
; 
 Children[RootNode] := Node1 
Node2 
Node3 
Node4 
; 
param ConditionalProbability := RootNode = 1.0 
Node1 = 0.25 
Node2 = 0.25 
Node3 = 0.25 
Node4 = 0.25 
; 
set Scenarios := Scenario1 
Scenario2 
Scenario3 
Scenario4 
; 
param ScenarioLeafNode := Scenario1  Node1 
Scenario2  Node2 
Scenario3  Node3 
Scenario4  Node4 
; 
set StageVariables [FirstStage] := z1[*] 
 p_bat_Nutz[*] 
 p_bat_Lade[*] 
 p_einsp[*] 
 bat[*] 
 p_Nutz[*]; 
set StageVariables[SecondStage] := p_kauf[*]; 
param StageCost := FirstStage FirstStageCost 
 SecondStage SecondStageCost;